interdiction/MCDM/NO_CORR/GEN_FROM_60/15_ITEMS_1000_GEN/K5015W09.KNP.mps
NAME          BLANK   
ROWS
 N  OBJROW
 L  R0000000
COLUMNS
    C0000000  OBJROW     -330.         R0000000  681.        
    C0000001  OBJROW     -835.         R0000000  331.        
    C0000002  OBJROW     -216.         R0000000  424.        
    C0000003  OBJROW     -410.         R0000000  914.        
    C0000004  OBJROW     -407.         R0000000  119.        
    C0000005  OBJROW     -428.         R0000000  309.        
    C0000006  OBJROW     -392.         R0000000  740.        
    C0000007  OBJROW     -771.         R0000000  678.        
    C0000008  OBJROW     -761.         R0000000  979.        
    C0000009  OBJROW     -288.         R0000000  102.        
    C0000010  OBJROW     -288.         R0000000  315.        
    C0000011  OBJROW     -129.         R0000000  929.        
    C0000012  OBJROW     -362.         R0000000  178.        
    C0000013  OBJROW     -763.         R0000000  911.        
    C0000014  OBJROW     -633.         R0000000  79.         
RHS
    RHS       R0000000  14716.      
BOUNDS
 BV BOUND     C0000000  1.          
 BV BOUND     C0000001  1.          
 BV BOUND     C0000002  1.          
 BV BOUND     C0000003  1.          
 BV BOUND     C0000004  1.          
 BV BOUND     C0000005  1.          
 BV BOUND     C0000006  1.          
 BV BOUND     C0000007  1.          
 BV BOUND     C0000008  1.          
 BV BOUND     C0000009  1.          
 BV BOUND     C0000010  1.          
 BV BOUND     C0000011  1.          
 BV BOUND     C0000012  1.          
 BV BOUND     C0000013  1.          
 BV BOUND     C0000014  1.          
ENDATA
