interdiction/MCDM/NO_CORR/GEN_FROM_60/15_ITEMS_1000_GEN/K5015W09.KNP.txt
N 15
M 16
LC 15
LC 16
LC 17
LC 18
LC 19
LC 20
LC 21
LC 22
LC 23
LC 24
LC 25
LC 26
LC 27
LC 28
LC 29
LR 1
LR 2
LR 3
LR 4
LR 5
LR 6
LR 7
LR 8
LR 9
LR 10
LR 11
LR 12
LR 13
LR 14
LR 15
LR 16
LO -330
LO -835
LO -216
LO -410
LO -407
LO -428
LO -392
LO -771
LO -761
LO -288
LO -288
LO -129
LO -362
LO -763
LO -633
OS 1
IC 344
IC 276
IC 327
IC 31
IC 602
IC 127
IC 602
IC 741
IC 316
IC 381
IC 998
IC 237
IC 429
IC 766
IC 119
IB 3148
